NAME: ./prFile/tspFile/tsp_file69.tsp
COMMENT: TSP file generated by Python
TYPE: TSP
DIMENSION: 40
EDGE_WEIGHT_TYPE: EUC_2D
NODE_COORD_SECTION
1 89 35
2 41 48
3 86 60
4 75 5
5 18 14
6 34 23
7 14 47
8 33 58
9 9 62
10 24 22
11 33 91
12 45 98
13 7 67
14 13 43
15 51 87
16 80 30
17 4 49
18 29 46
19 81 30
20 50 80
21 25 5
22 7 32
23 17 96
24 71 13
25 50 31
26 90 88
27 26 16
28 19 93
29 91 68
30 94 90
31 68 82
32 12 43
33 83 50
34 79 24
35 78 80
36 85 85
37 72 64
38 8 19
39 8 21
40 100 17
EOF
